17	4
26	26	22	27	
0	0	0	0	0	3	2	3	4	
1	2	7	9	1	3	17	17	17	
5	4	2	9	1	2	9	17	
9	5	8	1	1	3	5	7	8	
6	10	8	3	10	3	6	10	11	
25	6	3	1	7	1	17	
200	5	10	3	1	2	14	15	
75	9	6	3	4	1	17	
225	8	10	2	9	1	14	
150	7	3	10	8	1	16	
175	4	3	3	4	2	12	13	
25	7	8	2	6	1	17	
8	6	3	1	4	2	17	17	
10	7	4	5	5	1	17	
2	7	2	6	8	1	17	
8	10	4	1	9	1	17	
0	0	0	0	0	0	
